pair_style mie/cut 150.0

pair_coeff	1	1	2660.77425533	50.0	28	14
